1 7
2 6
3 7
4 5
5 21
6 14
7 14
8 16
9 15
10 2
11 8
12 6
13 9
14 9
15 13
16 18
17 13
18 19
19 24
20 24
21 24
22 24
23 11
24 24
25 24
26 24
27 1
28 1
29 17
30 15
31 10
32 4
33 15
34 9
35 13
36 24
37 24
38 6
39 20
40 2
41 12
42 8
43 22
44 1
45 6
46 5
47 10
48 10
49 3
50 12
51 21
52 11
53 21
54 2
55 23
56 24
57 6
58 2
59 18
60 10
61 12
62 18
63 16
64 16
65 16
66 16
67 16
68 16
69 17
70 24
71 21
72 4
73 4
74 6
75 13
76 8
77 3
78 11
79 3
80 22
81 3
82 12
83 3
84 11
85 6
86 2
87 3
88 1
89 3
90 11
91 12
92 8
93 8
94 22
95 21
96 8
97 8
98 1
99 22
100 9
101 15
102 14
103 22
104 5
105 13
106 15
107 5
108 17
109 13
110 11
111 21
112 6
113 8
114 9
115 24
116 22
117 22
118 6
119 7
120 12
121 13
122 14
123 4
124 14
125 19
126 19
127 19
128 19
129 24
130 23
131 22
132 22
133 23
134 1
135 1
136 1
137 1
138 11
139 21
140 3
141 18
142 20
143 20
144 21
145 9
146 21
147 9
148 15
149 9
150 4
151 12
152 10
153 8
154 8
155 17
156 17
157 17
158 6
159 5
160 5
161 5
162 24
163 14
164 14
165 12
166 20
167 23
168 14
169 6
170 7
171 10
172 5
173 20
174 5
175 19
176 15
177 19
178 9
179 5
180 14
181 24
182 5
183 8
184 8
185 6
186 12
187 5
188 21
189 13
190 5
